&CONTROL
  calculation='cp',
  restart_mode='from_scratch'
  outdir='./out_cp',
  prefix='P',
  pseudo_dir='./ps',
  nstep=1000,
  iprint=5,
  isave=100,
  dt=2.0,
  ndw=50,
  tprnfor=.true.
  tstress=.true.
  etot_conv_thr=1.d-9
  ekin_conv_thr=1.d-7
/

&SYSTEM
  ibrav=0,
  nat=16,
  ntyp=1,
  ecutwfc=60,
  ecutrho=360,
  nr1b=20, nr2b=20, nr3b=20,
/

&ELECTRONS
  electron_dynamics = 'damp',
  electron_damping=0.1,
  emass=300,
  orthogonalization='ortho',
  ortho_eps=1d-11,
  ortho_max=1000
/

&IONS
  ion_dynamics='none'
/

ATOMIC_SPECIES
 P 30.973762d0 P.pbe-nl-rrkjus_psl.1.0.0.UPF


ATOMIC_POSITIONS {angstrom}

 P        1.64946  4.21132  13.3133
 P        0.00000   2.72483  13.3133
 P        1.64946  0.412741  11.2111
 P        0.00000  1.89923  11.2111
 P        1.64946  8.83537  13.3133
 P        0.00000   7.34888  13.3133 
 P        1.64946  5.0368  11.2111
 P        0.00000  6.52329  11.2111
 P        4.94838  4.21132  13.3133
 P        3.29892  2.72483  13.3133
 P        4.94838  0.412741  11.2111
 P        3.29892  1.89923  11.2111
 P        4.94838  8.83537  13.3133
 P        3.29892  7.34888  13.3133
 P        4.94838  5.0368  11.2111
 P        3.29892  6.52329  11.2111

CELL_PARAMETERS {angstrom}
   6.59784   0.000000000   0.000000000
   0.000000000   9.24811   0.000000000
   0.000000000   0.000000000   20.0243944325025112
